; benchmark generated from python API
(set-info :status unknown)
(declare-datatypes ((RealState 0)) (((RMk1 (rval1 Real)) (RMk2 (rval2 Real)))))
 (assert
 (forall ((|v11:0| Real) )(exists ((|v10:1_st| RealState) (val!1680 Real) )(forall ((|v9:2| Real) )(exists ((|v8:3_st| RealState) (val!1681 Real) )(forall ((|v7:4| Real) )(exists ((|v6:5_st| RealState) (val!1682 Real) )(forall ((|v5:6| Real) )(exists ((|v4:7_st| RealState) (val!1683 Real) )(forall ((|v3:8| Real) )(exists ((|v2:9_st| RealState) (val!1684 Real) )(forall ((|v1:10| Real) )(exists ((|v0:11_st| RealState) (val!1685 Real) )(let ((?x140 (- 5.0)))
 (let ((?x251 (* 6.0 |v3:8|)))
 (let ((?x2123 (+ (+ (+ (* (- 20.0) |v11:0|) (* (- 15.0) |v11:0|)) (* 11.0 |v7:4|)) ?x251)))
 (let ((?x214 (- 6.0)))
 (let ((?x2166 (rval2 |v6:5_st|)))
 (let ((?x168 (- 8.0)))
 (let ((?x1380 (* ?x168 ?x2166)))
 (let (($x857 (<= (+ (+ (+ (* (- 15.0) |v1:10|) (* 9.0 |v9:2|)) (rval2 |v2:9_st|)) ?x1380) ?x214)))
 (let ((?x195 (* 7.0 |v1:10|)))
 (let ((?x1435 (+ (+ (* 11.0 (rval2 |v10:1_st|)) (* (- 12.0) ?x2166)) (* (- 12.0) |v11:0|))))
 (let ((?x1611 (rval2 |v8:3_st|)))
 (let ((?x1696 (* 20.0 ?x1611)))
 (let ((?x2206 (+ (+ (+ (* (- 10.0) ?x1611) (* (- 4.0) |v3:8|)) ?x1696) (* (- 20.0) (rval2 |v10:1_st|)))))
 (let (($x1620 (or (or (<= ?x2206 13.0) (<= (+ ?x1435 ?x195) 3.0)) (and $x857 (<= ?x2123 ?x140)))))
 (let ((?x1293 (- 11.0)))
 (let ((?x2375 (- 15.0)))
 (let ((?x1079 (* ?x2375 |v7:4|)))
 (let ((?x909 (+ (+ (* 14.0 |v9:2|) (* (- 1.0) ?x1611)) (* (- 16.0) (rval2 |v4:7_st|)))))
 (let ((?x906 (* 20.0 |v9:2|)))
 (let ((?x776 (+ (+ (+ (* 9.0 (rval2 |v10:1_st|)) (* ?x2375 |v3:8|)) (* 16.0 |v5:6|)) ?x906)))
 (let ((?x1798 (rval2 |v10:1_st|)))
 (let ((?x2288 (- 10.0)))
 (let ((?x3008 (* ?x2288 ?x1798)))
 (let ((?x1628 (+ (+ (+ (* (- 14.0) |v11:0|) (* 4.0 |v11:0|)) (* 4.0 |v1:10|)) ?x3008)))
 (let ((?x995 (+ (+ (+ (* 19.0 |v1:10|) (* ?x1293 (rval2 |v2:9_st|))) (* (- 7.0) ?x2166)) (* ?x214 ?x2166))))
 (let (($x525 (or (and (<= ?x995 16.0) (<= ?x1628 20.0)) (and (<= ?x776 14.0) (<= (+ ?x909 ?x1079) ?x1293)))))
 (let ((?x1000 (+ (+ (+ (* (- 17.0) (rval2 |v0:11_st|)) (* 12.0 |v9:2|)) (* ?x168 |v11:0|)) (* (- 7.0) (rval2 |v0:11_st|)))))
 (let ((?x467 (- 13.0)))
 (let ((?x1617 (* ?x168 |v3:8|)))
 (let ((?x1667 (+ (+ (+ (* (- 7.0) ?x2166) (* (- 17.0) (rval2 |v0:11_st|))) ?x1079) ?x1617)))
 (let ((?x448 (* ?x1293 |v5:6|)))
 (let ((?x188 (rval2 |v4:7_st|)))
 (let ((?x1026 (* ?x140 ?x188)))
 (let (($x1872 (<= (+ (+ (+ (* ?x1293 (rval2 |v0:11_st|)) (* (- 16.0) |v1:10|)) ?x1026) ?x448) ?x2288)))
 (let ((?x2446 (- 19.0)))
 (let ((?x819 (* 15.0 |v1:10|)))
 (let ((?x1784 (+ (+ (* 3.0 ?x1798) (* 9.0 (rval2 |v2:9_st|))) (* 3.0 (rval2 |v2:9_st|)))))
 (let ((?x1754 (- 3.0)))
 (let ((?x2856 (+ (+ (+ (* 4.0 |v7:4|) (* 12.0 |v7:4|)) (* ?x467 |v1:10|)) (* (- 1.0) |v7:4|))))
 (let ((?x2741 (+ (+ (+ (* 8.0 |v3:8|) (* 8.0 ?x1611)) (* (- 16.0) ?x2166)) (* (- 20.0) ?x1611))))
 (let ((?x1427 (+ (+ (+ (* 9.0 ?x2166) (* ?x2446 ?x1611)) (* 7.0 (rval2 |v2:9_st|))) ?x1696)))
 (let (($x134 (or (and (<= ?x1427 ?x214) (<= ?x2741 20.0)) (or (<= ?x2856 ?x1754) (<= (+ ?x1784 ?x819) ?x2446)))))
 (let (($x473 (and (or $x134 (or (or $x1872 (<= ?x1667 ?x467)) (<= ?x1000 8.0))) (and $x525 $x1620))))
 (let ((?x2759 (+ (+ (+ (* (- 4.0) |v7:4|) (* 5.0 ?x188)) (* ?x214 (rval2 |v2:9_st|))) (* ?x2446 ?x188))))
 (let ((?x92 (- 17.0)))
 (let ((?x1723 (+ (+ (+ (* 10.0 |v9:2|) (* ?x1293 ?x188)) (* ?x168 |v1:10|)) (* 7.0 ?x1611))))
 (let ((?x1398 (+ (+ (+ (* ?x140 |v5:6|) (* ?x214 ?x1611)) (* ?x2288 |v3:8|)) (* ?x92 ?x1611))))
 (let ((?x545 (- 16.0)))
 (let ((?x2361 (+ (+ (+ (* ?x2446 |v7:4|) (* ?x467 |v11:0|)) (* 7.0 ?x1798)) (* 17.0 (rval2 |v2:9_st|)))))
 (let (($x1704 (or (and (<= ?x2361 ?x545) (<= ?x1398 8.0)) (and (<= ?x1723 ?x92) (<= ?x2759 6.0)))))
 (let ((?x1876 (* 15.0 |v7:4|)))
 (let (($x1259 (<= (+ (+ (+ (* (- 12.0) |v3:8|) (* 17.0 |v1:10|)) (* ?x92 |v1:10|)) ?x1876) ?x467)))
 (let ((?x1319 (- 9.0)))
 (let ((?x972 (* 8.0 ?x2166)))
 (let ((?x40 (+ (+ (+ (* ?x92 |v1:10|) (* ?x214 (rval2 |v2:9_st|))) (* (- 20.0) |v9:2|)) ?x972)))
 (let ((?x1257 (* 11.0 |v5:6|)))
 (let (($x2451 (<= (+ (+ (+ (* 0.0 |v9:2|) |v7:4|) (* (- 4.0) |v3:8|)) ?x1257) ?x1319)))
 (let (($x1354 (<= (+ (+ (+ (* ?x467 ?x1798) ?x1380) (* ?x1754 |v5:6|)) (* ?x545 ?x2166)) ?x2288)))
 (let ((?x858 (* 2.0 |v3:8|)))
 (let (($x695 (<= (+ (+ (+ (* 16.0 ?x188) (* 6.0 |v5:6|)) (* ?x2446 |v1:10|)) ?x858) 12.0)))
 (let ((?x366 (- 4.0)))
 (let ((?x238 (+ (+ (+ (* 20.0 |v1:10|) (* ?x92 (rval2 |v2:9_st|))) (* ?x366 (rval2 |v2:9_st|))) ?x1876)))
 (let ((?x25 (* ?x467 ?x1798)))
 (let (($x870 (<= (+ (+ (+ (* 8.0 |v11:0|) (* (- 7.0) ?x1798)) (* ?x2375 ?x188)) ?x25) 10.0)))
 (let ((?x1251 (+ (+ (+ (* ?x214 ?x188) (* (- 12.0) ?x1798)) (* 8.0 |v5:6|)) (* ?x2446 (rval2 |v0:11_st|)))))
 (let (($x1324 (<= (+ (+ (+ (* 18.0 |v7:4|) (* 9.0 ?x1611)) (* ?x366 |v7:4|)) ?x1026) 17.0)))
 (let ((?x517 (+ (+ (+ (* (- 14.0) ?x1798) (* 13.0 ?x188)) (* ?x214 ?x188)) (* ?x140 |v11:0|))))
 (let ((?x2904 (- 2.0)))
 (let ((?x2019 (rval2 |v2:9_st|)))
 (let ((?x1681 (* 13.0 ?x2019)))
 (let ((?x555 (+ (+ (+ (* (- 14.0) |v3:8|) (* (- 12.0) |v5:6|)) (* 10.0 ?x188)) ?x1681)))
 (let (($x1433 (and (<= (+ (+ (+ ?x1876 (* ?x366 |v3:8|)) (* 9.0 |v5:6|)) ?x188) ?x545) (<= ?x555 ?x2904))))
 (let (($x941 (and (and $x1433 (or (<= ?x517 8.0) $x1324)) (or (or (<= ?x1251 ?x168) $x870) (and (<= ?x238 ?x366) $x695)))))
 (let (($x3013 (or (and $x941 (or (and (or $x1354 $x2451) (and (<= ?x40 ?x1319) $x1259)) $x1704)) $x473)))
 (let ((?x1579 (rval2 |v0:11_st|)))
 (let ((?x719 (- 20.0)))
 (let ((?x2638 (* ?x719 ?x1579)))
 (let (($x74 (<= (+ (+ (+ (* (- 18.0) |v3:8|) (* 15.0 ?x188)) ?x2638) ?x2019) 0.0)))
 (let ((?x1464 (* ?x719 |v7:4|)))
 (let (($x2034 (<= (+ (+ (+ (* ?x467 ?x2166) (* (- 14.0) |v1:10|)) (* ?x545 |v3:8|)) ?x1464) ?x467)))
 (let (($x2154 (<= (+ (+ (+ (* 16.0 |v5:6|) ?x1079) (* 7.0 |v9:2|)) (* 14.0 ?x1579)) ?x92)))
 (let ((?x393 (* 9.0 ?x188)))
 (let (($x559 (<= (+ (+ (+ (* (- 7.0) |v7:4|) (* ?x2375 ?x1579)) (* 8.0 ?x1798)) ?x393) ?x1754)))
 (let ((?x1873 (- 14.0)))
 (let ((?x442 (+ (+ (+ (* 8.0 ?x188) (* 7.0 |v7:4|)) (* 10.0 ?x1798)) (* ?x214 ?x1798))))
 (let (($x2331 (<= (+ (+ (+ (* 12.0 ?x1579) (* ?x545 |v7:4|)) |v11:0|) (* 15.0 ?x2166)) 3.0)))
 (let ((?x507 (+ (+ (+ (* 12.0 |v9:2|) (* ?x1754 |v11:0|)) (* 0.0 ?x188)) (* ?x2288 |v11:0|))))
 (let ((?x2610 (* 9.0 |v1:10|)))
 (let ((?x271 (+ (+ (+ (* 14.0 |v1:10|) (* (- 12.0) |v5:6|)) (* 14.0 |v11:0|)) ?x2610)))
 (let ((?x783 (+ (+ (+ (* ?x2446 |v5:6|) (* ?x2904 ?x2019)) (* 7.0 |v11:0|)) (* 3.0 ?x1579))))
 (let (($x88 (or (and (<= ?x783 ?x1319) (<= ?x271 14.0)) (and (<= ?x507 8.0) $x2331))))
 (let (($x75 (or (and $x88 (and (and (<= ?x442 ?x1873) $x559) (and $x2154 $x2034))) $x74)))
 (let ((?x1002 (+ (+ (+ (* 15.0 |v3:8|) (* ?x467 ?x2166)) (* 12.0 ?x1798)) (* (- 12.0) ?x2019))))
 (let ((?x1502 (+ (+ (+ (* 11.0 ?x2166) (* ?x366 ?x1579)) (* ?x1319 |v5:6|)) (* ?x2904 ?x188))))
 (let ((?x2983 (* 7.0 ?x1798)))
 (let (($x1109 (<= (+ (+ (+ (* ?x1319 |v5:6|) (* 4.0 |v7:4|)) (* 6.0 ?x188)) ?x2983) 12.0)))
 (let (($x2607 (<= (+ (+ (+ (* 16.0 |v11:0|) (* ?x168 ?x1611)) ?x3008) (* ?x2375 |v9:2|)) ?x2288)))
 (let ((?x1496 (- 7.0)))
 (let (($x354 (<= (+ (+ (+ (* ?x1873 |v11:0|) (* 9.0 |v11:0|)) (* 6.0 ?x1798)) ?x188) ?x1496)))
 (let ((?x212 (* 11.0 ?x1798)))
 (let (($x2031 (<= (+ (+ (+ (* ?x214 ?x188) (* ?x168 |v5:6|)) (* 2.0 ?x2019)) ?x212) 15.0)))
 (let ((?x452 (- 1.0)))
 (let ((?x887 (* 3.0 ?x188)))
 (let (($x71 (<= (+ (+ (+ (* 2.0 |v1:10|) (* ?x2288 ?x1611)) (* 2.0 |v5:6|)) ?x887) ?x452)))
 (let (($x2532 (or (<= (+ (+ (+ (* 3.0 ?x1798) ?x2638) ?x448) (* ?x467 ?x188)) ?x719) $x71)))
 (let (($x1419 (and (and $x2532 (and $x2031 $x354)) (and (or $x2607 $x1109) (<= ?x1502 18.0)))))
 (let (($x1423 (not (= |v0:11_st| (RMk1 val!1685)))))
 (let (($x937 (not (= |v2:9_st| (RMk1 val!1684)))))
 (let (($x1277 (not (= |v4:7_st| (RMk1 val!1683)))))
 (let (($x1151 (not (= |v6:5_st| (RMk1 val!1682)))))
 (let (($x1011 (not (= |v8:3_st| (RMk1 val!1681)))))
 (let (($x439 (not (= |v10:1_st| (RMk1 val!1680)))))
 (and $x439 $x1011 $x1151 $x1277 $x937 $x1423 (and (or (and $x1419 (<= ?x1002 ?x1873)) $x75) $x3013)))))))))))))))))))))))))))))))))))))))))))))))))))))))))))))))))))))))))))))))))))))))))))))))))))))))))))))))))))
 )
 )
 )
 )
 )
 )
 )
 )
 )
 )
 )
 )
(check-sat)
